(set-info :source |printed by MathSAT|)
(declare-fun call_excludes4.excludes () Bool)
(declare-fun call_moesi.ite18 () Int)
(declare-fun call_moesi.ite28 () Int)
(declare-fun call_moesi.ite25 () Int)
(declare-fun call_moesi.ite24 () Int)
(declare-fun call_moesi.flby2 () Int)
(declare-fun call_moesi.ite32 () Int)
(declare-fun call_moesi.ite2 () Int)
(declare-fun call_moesi.ite26 () Int)
(declare-fun call_moesi.ite11 () Int)
(declare-fun call_Sofar.Sofar () Bool)
(declare-fun call_moesi.ite34 () Int)
(declare-fun call_moesi.ite22 () Int)
(declare-fun call_moesi.ite27 () Int)
(declare-fun call_moesi.garde_mo3 () Bool)
(declare-fun call_moesi.garde_mo1 () Bool)
(declare-fun owned_mo () Int)
(declare-fun call_moesi.flby3 () Int)
(declare-fun call_moesi.ite20 () Int)
(declare-fun call_moesi.ite30 () Int)
(declare-fun shared_mo () Int)
(declare-fun call_moesi.ite31 () Int)
(declare-fun param_etat_mo4 () Bool)
(declare-fun param_init_invalid_mo () Int)
(declare-fun call_moesi.ite33 () Int)
(declare-fun call_moesi.ite6 () Int)
(declare-fun call_moesi.ite10 () Int)
(declare-fun call_moesi.ite21 () Int)
(declare-fun call_moesi.modified_mo () Int)
(declare-fun call_moesi.shared_mo () Int)
(declare-fun call_moesi.ite13 () Int)
(declare-fun call_moesi.flby () Bool)
(declare-fun erreur_mo () Bool)
(declare-fun _OK_ () Bool)
(declare-fun call_moesi.owned_mo () Int)
(declare-fun call_moesi.ite23 () Int)
(declare-fun call_moesi.ite19 () Int)
(declare-fun exclusive_mo () Int)
(declare-fun call_moesi.flby5 () Int)
(declare-fun param_etat_mo1 () Bool)
(declare-fun call_moesi.ite29 () Int)
(declare-fun call_moesi.ite5 () Int)
(declare-fun call_moesi.ite17 () Int)
(declare-fun call_moesi.flby6 () Int)
(declare-fun call_moesi.ite15 () Int)
(declare-fun call_moesi.erreur_mo () Bool)
(declare-fun call_moesi.ite12 () Int)
(declare-fun invalid_mo () Int)
(declare-fun call_Sofar.flby () Bool)
(declare-fun modified_mo () Int)
(declare-fun call_moesi.ite14 () Int)
(declare-fun call_moesi.ite8 () Int)
(declare-fun call_moesi.ite () Int)
(declare-fun call_moesi.invalid_mo () Int)
(declare-fun call_moesi.ite4 () Int)
(declare-fun call_moesi.garde_mo4 () Bool)
(declare-fun call_moesi.exclusive_mo () Int)
(declare-fun call_moesi.ite7 () Int)
(declare-fun param_etat_mo3 () Bool)
(declare-fun env () Bool)
(declare-fun flby () Bool)
(declare-fun call_moesi.ite3 () Int)
(declare-fun call_moesi.ite16 () Int)
(declare-fun call_moesi.flby4 () Int)
(declare-fun call_moesi.ite9 () Int)
(declare-fun param_etat_mo2 () Bool)
(define-fun .def_936 () Bool (= call_Sofar.flby call_Sofar.Sofar))
(define-fun .def_931 () Bool (and param_etat_mo4 param_etat_mo3))
(define-fun .def_929 () Bool (and param_etat_mo4 param_etat_mo2))
(define-fun .def_927 () Bool (and param_etat_mo2 param_etat_mo3))
(define-fun .def_925 () Bool (and param_etat_mo4 param_etat_mo1))
(define-fun .def_923 () Bool (and param_etat_mo1 param_etat_mo3))
(define-fun .def_922 () Bool (and param_etat_mo2 param_etat_mo1))
(define-fun .def_924 () Bool (or .def_922 .def_923))
(define-fun .def_926 () Bool (or .def_924 .def_925))
(define-fun .def_928 () Bool (or .def_926 .def_927))
(define-fun .def_930 () Bool (or .def_928 .def_929))
(define-fun .def_932 () Bool (or .def_930 .def_931))
(define-fun .def_933 () Bool (not .def_932))
(define-fun .def_934 () Bool (= call_excludes4.excludes .def_933))
(define-fun .def_920 () Bool (= call_moesi.flby call_moesi.erreur_mo))
(define-fun .def_918 () Bool (= call_moesi.flby6 call_moesi.owned_mo))
(define-fun .def_916 () Bool (= call_moesi.flby5 call_moesi.invalid_mo))
(define-fun .def_914 () Bool (= call_moesi.flby4 call_moesi.shared_mo))
(define-fun .def_912 () Bool (= call_moesi.flby3 call_moesi.exclusive_mo))
(define-fun .def_910 () Bool (= call_moesi.flby2 call_moesi.modified_mo))
(define-fun .def_908 () Bool (= env call_Sofar.Sofar))
(define-fun .def_905 () Bool (= erreur_mo call_moesi.erreur_mo))
(define-fun .def_902 () Bool (= owned_mo call_moesi.owned_mo))
(define-fun .def_898 () Bool (= invalid_mo call_moesi.invalid_mo))
(define-fun .def_894 () Bool (= shared_mo call_moesi.shared_mo))
(define-fun .def_890 () Bool (= exclusive_mo call_moesi.exclusive_mo))
(define-fun .def_886 () Bool (= modified_mo call_moesi.modified_mo))
(define-fun .def_879 () Bool (not erreur_mo))
(define-fun .def_880 () Bool (and flby .def_879))
(define-fun .def_877 () Bool (not env))
(define-fun .def_881 () Bool (or .def_877 .def_880))
(define-fun .def_882 () Bool (= _OK_ .def_881))
(define-fun .def_871 () Bool (= call_moesi.ite32 call_moesi.ite33))
(define-fun .def_872 () Bool (or param_etat_mo3 .def_871))
(define-fun .def_868 () Bool (= call_moesi.ite30 call_moesi.ite33))
(define-fun .def_846 () Bool (not param_etat_mo3))
(define-fun .def_869 () Bool (or .def_846 .def_868))
(define-fun .def_865 () Bool (= call_moesi.ite26 call_moesi.ite27))
(define-fun .def_866 () Bool (or param_etat_mo3 .def_865))
(define-fun .def_862 () Bool (= call_moesi.ite27 call_moesi.ite24))
(define-fun .def_863 () Bool (or .def_846 .def_862))
(define-fun .def_858 () Bool (= call_moesi.ite20 call_moesi.ite21))
(define-fun .def_859 () Bool (or param_etat_mo3 .def_858))
(define-fun .def_855 () Bool (= call_moesi.ite18 call_moesi.ite21))
(define-fun .def_856 () Bool (or .def_846 .def_855))
(define-fun .def_852 () Bool (= call_moesi.ite13 call_moesi.ite14))
(define-fun .def_853 () Bool (or param_etat_mo3 .def_852))
(define-fun .def_849 () Bool (= call_moesi.ite11 call_moesi.ite14))
(define-fun .def_850 () Bool (or .def_846 .def_849))
(define-fun .def_845 () Bool (= call_moesi.ite3 call_moesi.ite6))
(define-fun .def_847 () Bool (or .def_845 .def_846))
(define-fun .def_842 () Bool (= call_moesi.ite5 call_moesi.ite6))
(define-fun .def_844 () Bool (or .def_842 param_etat_mo3))
(define-fun .def_848 () Bool (and .def_844 .def_847))
(define-fun .def_851 () Bool (and .def_848 .def_850))
(define-fun .def_854 () Bool (and .def_851 .def_853))
(define-fun .def_857 () Bool (and .def_854 .def_856))
(define-fun .def_860 () Bool (and .def_857 .def_859))
(define-fun .def_864 () Bool (and .def_860 .def_863))
(define-fun .def_867 () Bool (and .def_864 .def_866))
(define-fun .def_870 () Bool (and .def_867 .def_869))
(define-fun .def_873 () Bool (and .def_870 .def_872))
(define-fun .def_838 () Bool (= call_moesi.ite34 call_moesi.ite33))
(define-fun .def_839 () Bool (or param_etat_mo1 .def_838))
(define-fun .def_834 () Bool (= call_moesi.ite29 call_moesi.ite34))
(define-fun .def_804 () Bool (not param_etat_mo1))
(define-fun .def_835 () Bool (or .def_804 .def_834))
(define-fun .def_829 () Bool (= call_moesi.ite28 call_moesi.ite27))
(define-fun .def_830 () Bool (or param_etat_mo1 .def_829))
(define-fun .def_825 () Bool (= call_moesi.ite23 call_moesi.ite28))
(define-fun .def_826 () Bool (or .def_804 .def_825))
(define-fun .def_820 () Bool (= call_moesi.ite22 call_moesi.ite21))
(define-fun .def_821 () Bool (or param_etat_mo1 .def_820))
(define-fun .def_816 () Bool (= call_moesi.ite17 call_moesi.ite22))
(define-fun .def_817 () Bool (or .def_804 .def_816))
(define-fun .def_811 () Bool (= call_moesi.ite15 call_moesi.ite16))
(define-fun .def_812 () Bool (or param_etat_mo1 .def_811))
(define-fun .def_808 () Bool (= call_moesi.ite9 call_moesi.ite16))
(define-fun .def_809 () Bool (or .def_804 .def_808))
(define-fun .def_803 () Bool (= call_moesi.ite call_moesi.ite8))
(define-fun .def_805 () Bool (or .def_803 .def_804))
(define-fun .def_800 () Bool (= call_moesi.ite7 call_moesi.ite8))
(define-fun .def_802 () Bool (or .def_800 param_etat_mo1))
(define-fun .def_806 () Bool (and .def_802 .def_805))
(define-fun .def_810 () Bool (and .def_806 .def_809))
(define-fun .def_813 () Bool (and .def_810 .def_812))
(define-fun .def_818 () Bool (and .def_813 .def_817))
(define-fun .def_822 () Bool (and .def_818 .def_821))
(define-fun .def_827 () Bool (and .def_822 .def_826))
(define-fun .def_831 () Bool (and .def_827 .def_830))
(define-fun .def_836 () Bool (and .def_831 .def_835))
(define-fun .def_840 () Bool (and .def_836 .def_839))
(define-fun .def_796 () Bool (= call_moesi.ite15 call_moesi.ite14))
(define-fun .def_797 () Bool (or param_etat_mo2 .def_796))
(define-fun .def_792 () Bool (= call_moesi.ite10 call_moesi.ite15))
(define-fun .def_787 () Bool (not param_etat_mo2))
(define-fun .def_793 () Bool (or .def_787 .def_792))
(define-fun .def_786 () Bool (= call_moesi.ite7 call_moesi.ite2))
(define-fun .def_788 () Bool (or .def_786 .def_787))
(define-fun .def_782 () Bool (= call_moesi.ite7 call_moesi.ite6))
(define-fun .def_784 () Bool (or .def_782 param_etat_mo2))
(define-fun .def_789 () Bool (and .def_784 .def_788))
(define-fun .def_794 () Bool (and .def_789 .def_793))
(define-fun .def_798 () Bool (and .def_794 .def_797))
(define-fun .def_841 () Bool (and .def_798 .def_840))
(define-fun .def_874 () Bool (and .def_841 .def_873))
(define-fun .def_883 () Bool (and .def_874 .def_882))
(define-fun .def_887 () Bool (and .def_883 .def_886))
(define-fun .def_891 () Bool (and .def_887 .def_890))
(define-fun .def_895 () Bool (and .def_891 .def_894))
(define-fun .def_899 () Bool (and .def_895 .def_898))
(define-fun .def_903 () Bool (and .def_899 .def_902))
(define-fun .def_906 () Bool (and .def_903 .def_905))
(define-fun .def_909 () Bool (and .def_906 .def_908))
(define-fun .def_911 () Bool (and .def_909 .def_910))
(define-fun .def_913 () Bool (and .def_911 .def_912))
(define-fun .def_915 () Bool (and .def_913 .def_914))
(define-fun .def_917 () Bool (and .def_915 .def_916))
(define-fun .def_919 () Bool (and .def_917 .def_918))
(define-fun .def_921 () Bool (and .def_919 .def_920))
(define-fun .def_935 () Bool (and .def_921 .def_934))
(define-fun .def_937 () Bool (and .def_935 .def_936))
(define-fun .def_778 () Bool (= call_excludes4.excludes call_Sofar.flby))
(define-fun .def_774 () Bool (= call_moesi.flby6 0))
(define-fun .def_771 () Bool (= param_init_invalid_mo call_moesi.flby5))
(define-fun .def_767 () Bool (= call_moesi.flby4 0))
(define-fun .def_764 () Bool (= call_moesi.flby3 0))
(define-fun .def_761 () Bool (= call_moesi.flby2 0))
(define-fun .def_758 () Bool (not call_moesi.flby))
(define-fun .def_753 () Bool (= call_moesi.ite31 0))
(define-fun .def_745 () Bool (not call_moesi.garde_mo4))
(define-fun .def_754 () Bool (or .def_745 .def_753))
(define-fun .def_750 () Bool (= call_moesi.ite19 0))
(define-fun .def_751 () Bool (or .def_745 .def_750))
(define-fun .def_747 () Bool (= call_moesi.ite4 0))
(define-fun .def_748 () Bool (or .def_745 .def_747))
(define-fun .def_743 () Bool (= call_moesi.ite12 1))
(define-fun .def_746 () Bool (or .def_743 .def_745))
(define-fun .def_749 () Bool (and .def_746 .def_748))
(define-fun .def_752 () Bool (and .def_749 .def_751))
(define-fun .def_755 () Bool (and .def_752 .def_754))
(define-fun .def_739 () Bool (= call_moesi.ite30 0))
(define-fun .def_728 () Bool (not call_moesi.garde_mo3))
(define-fun .def_740 () Bool (or .def_728 .def_739))
(define-fun .def_735 () Bool (= call_moesi.ite18 0))
(define-fun .def_736 () Bool (or .def_728 .def_735))
(define-fun .def_731 () Bool (= call_moesi.ite3 0))
(define-fun .def_732 () Bool (or .def_728 .def_731))
(define-fun .def_726 () Bool (= call_moesi.ite11 1))
(define-fun .def_729 () Bool (or .def_726 .def_728))
(define-fun .def_733 () Bool (and .def_729 .def_732))
(define-fun .def_737 () Bool (and .def_733 .def_736))
(define-fun .def_741 () Bool (and .def_737 .def_740))
(define-fun .def_721 () Bool (= call_moesi.ite 0))
(define-fun .def_718 () Bool (not call_moesi.garde_mo1))
(define-fun .def_722 () Bool (or .def_718 .def_721))
(define-fun .def_716 () Bool (= call_moesi.ite9 0))
(define-fun .def_719 () Bool (or .def_716 .def_718))
(define-fun .def_723 () Bool (and .def_719 .def_722))
(define-fun .def_710 () Bool (= call_moesi.ite31 call_moesi.ite32))
(define-fun .def_691 () Bool (not param_etat_mo4))
(define-fun .def_711 () Bool (or .def_691 .def_710))
(define-fun .def_705 () Bool (= call_moesi.ite25 call_moesi.ite26))
(define-fun .def_706 () Bool (or .def_691 .def_705))
(define-fun .def_700 () Bool (= call_moesi.ite19 call_moesi.ite20))
(define-fun .def_701 () Bool (or .def_691 .def_700))
(define-fun .def_695 () Bool (= call_moesi.ite4 call_moesi.ite5))
(define-fun .def_696 () Bool (or .def_691 .def_695))
(define-fun .def_689 () Bool (= call_moesi.ite12 call_moesi.ite13))
(define-fun .def_692 () Bool (or .def_689 .def_691))
(define-fun .def_697 () Bool (and .def_692 .def_696))
(define-fun .def_702 () Bool (and .def_697 .def_701))
(define-fun .def_707 () Bool (and .def_702 .def_706))
(define-fun .def_712 () Bool (and .def_707 .def_711))
(define-fun .def_714 () Bool (and .def_712 flby))
(define-fun .def_724 () Bool (and .def_714 .def_723))
(define-fun .def_742 () Bool (and .def_724 .def_741))
(define-fun .def_756 () Bool (and .def_742 .def_755))
(define-fun .def_759 () Bool (and .def_756 .def_758))
(define-fun .def_762 () Bool (and .def_759 .def_761))
(define-fun .def_765 () Bool (and .def_762 .def_764))
(define-fun .def_768 () Bool (and .def_765 .def_767))
(define-fun .def_772 () Bool (and .def_768 .def_771))
(define-fun .def_775 () Bool (and .def_772 .def_774))
(define-fun .def_779 () Bool (and .def_775 .def_778))
(define-fun .def_938 () Bool (and .def_779 .def_937))
(assert .def_938)
